NAME : problems/30-tsp/instance-16.tsp
COMMENT : No Comment
TYPE : TSP
DIMENSION: 30
EDGE_WEIGHT_TYPE : EUC_2D
NODE_COORD_SECTION
1 3049 9441 
2 9973 6711 
3 3779 2718 
4 8208 3096 
5 2965 3512 
6 1882 2009 
7 9278 9228 
8 5546 9128 
9 7954 2444 
10 7959 6890 
11 9975 3691 
12 5347 3442 
13 1459 313 
14 1461 2597 
15 2528 7260 
16 9190 3561 
17 8214 8269 
18 7369 6967 
19 9626 3915 
20 217 78 
21 539 6952 
22 4672 7939 
23 8785 5157 
24 147 5129 
25 1873 5577 
26 5433 5939 
27 7320 442 
28 5787 391 
29 7490 4185 
30 3538 6164 
EOF
